-1 -721 0
-713 -627 -81 0
-627 -719 -81 0
-719 1 0
160 -721 0
-721 0
-81 0
1 0
641 0
161 0
-561 0
-241 0
41 0
-321 0
-121 0
-361 0
-481 0
21 0
61 0
681 0
-201 0
-101 0
-11 0
-221 0
-91 0
-441 0
-341 0
-461 0
-141 0
-261 0
-381 0
-501 0
-601 0
0
